submitit INFO (2023-05-02 18:49:40,313) - Starting with JobEnvironment(job_id=27734, hostname=cpunode3, local_rank=3(5), node=0(1), global_rank=3(5))
submitit INFO (2023-05-02 18:49:40,313) - Loading pickle: /h/30/pashootan/Matrix-Mult-CP/src/../logs/4/2x2x3_11_May02_18:49:38/27734_submitted.pkl
 ! --------------------------------------------------- CP Optimizer 22.1.1.0 --
 ! Satisfiability problem - 176 variables, 144 constraints
 ! TimeLimit            = 7200
 ! Workers              = 8
 ! LogPeriod            = 10000000
 ! RandomSeed           = 4930
 ! Initial process time : 0.02s (0.02s extraction + 0.00s propagation)
 !  . Log search space  : 279.0 (before), 279.0 (after)
 !  . Memory usage      : 821.3 kB (before), 821.3 kB (after)
 ! Using parallel search with 8 workers.
 ! ----------------------------------------------------------------------------
 !               Branches  Non-fixed    W       Branch decision
                   10000k          4    2         1 != W2_1
                   10000k          4    1         0 != U1_1
                   10000k          4    6         0  = V4_4
                   10000k          3    5         1 != V2_4
                   10000k          3    4         0  = W9_5
                   10000k          5    8        -1 != W1_1
                   10000k         15    7   F    -1 != V6_3
                   10000k         21    3   F     0  = W0_2
                   20000k          3    5   F     0 != U6_1
                   20000k          4    2   F     0  = U8_1
                   20000k          3    6   F    -1 != V3_1
                   20000k          4    1   F     1 != V8_2
                   20000k          3    4   F     0  = V5_2
                   20000k          9    8   F    -1  = V4_0
                   20000k         25    7   F    -1 != W8_4
                   20000k         18    3        -1  = U3_0
 *                 21991k  245.06s      4         1 != V3_3
 ! ----------------------------------------------------------------------------
 ! Search completed, 1 solution found.
 ! ----------------------------------------------------------------------------
 ! Number of branches     : 173700752
 ! Number of fails        : 80564070
 ! Total memory usage     : 143.9 MB (143.8 MB CP Optimizer + 0.1 MB Concert)
 ! Time spent in solve    : 245.06s (245.05s engine + 0.02s extraction)
 ! Search speed (br. / s) : 708838.0
 ! ----------------------------------------------------------------------------
Feasible
Model is valid
Saving solution to: /h/30/pashootan/Matrix-Mult-CP/logs/4/2x2x3_11_May02_18:49:38/27734_3_solution.txt
Saving stats to: /h/30/pashootan/Matrix-Mult-CP/logs/4/2x2x3_11_May02_18:49:38/27734_3_stats.csv
submitit INFO (2023-05-02 18:53:45,989) - Job completed successfully
